(declare-const X String)
; Host\x3A[^\n\r]*\x2Fbar_pl\x2Fshdoclc\.fcgi
(assert (str.in_re X (re.++ (str.to_re "Host:") (re.* (re.union (str.to_re "\u{a}") (str.to_re "\u{d}"))) (str.to_re "/bar_pl/shdoclc.fcgi\u{a}"))))
; TM_SEARCH3SearchUser-Agent\x3Aas\x2Estarware\x2EcomM\x2EzipCasinoResults_sq=aolsnssignin
(assert (not (str.in_re X (str.to_re "TM_SEARCH3SearchUser-Agent:as.starware.comM.zipCasinoResults_sq=aolsnssignin\u{a}"))))
; (AUX|PRN|NUL|COM\d|LPT\d)+\s*$
(assert (not (str.in_re X (re.++ (re.+ (re.union (str.to_re "AUX") (str.to_re "PRN") (str.to_re "NUL") (re.++ (str.to_re "COM") (re.range "0" "9")) (re.++ (str.to_re "LPT") (re.range "0" "9")))) (re.* (re.union (str.to_re " ") (str.to_re "\u{9}") (str.to_re "\u{a}") (str.to_re "\u{c}") (str.to_re "\u{d}"))) (str.to_re "\u{a}")))))
(check-sat)

(exit)
